100 100
36 95 1
91 14 1
36 16 1
93 91 1
17 61 1
98 82 1
56 43 1
49 65 1
65 5 1
25 50 1
87 25 1
38 83 1
100 14 1
30 40 1
16 17 1
81 33 1
80 11 1
1 7 1
68 8 1
35 38 1
92 52 1
60 39 1
96 21 1
88 54 1
58 26 1
63 60 1
90 11 1
62 68 1
35 54 1
98 24 1
72 67 1
14 4 1
12 93 1
88 21 1
98 11 1
31 18 1
10 31 1
88 73 1
57 98 1
37 97 1
85 90 1
88 35 1
70 19 1
86 64 1
25 27 1
9 96 1
94 94 1
68 75 1
54 29 1
8 79 1
17 79 1
5 19 1
27 20 1
72 39 1
62 64 1
52 17 1
32 54 1
24 65 1
83 70 1
98 26 1
92 21 1
20 79 1
71 53 1
66 34 1
63 43 1
49 36 1
46 2 1
11 63 1
32 75 1
32 26 1
66 40 1
22 70 1
24 7 1
26 72 1
18 21 1
21 42 1
92 59 1
19 27 1
24 34 1
64 3 1
26 89 1
33 82 1
41 3 1
39 7 1
48 85 1
25 58 1
58 81 1
69 44 1
14 69 1
82 11 1
96 59 1
9 36 1
13 97 1
28 30 1
10 59 1
49 38 1
66 57 1
17 38 1
91 35 1
10 40 1
100 100 
100 100 
100 100 
100 100 
100 100 
100 100 
100 100 
100 100 
100 100 
100 100 
100 100 
100 100 
100 100 
100 100 
100 100 
100 100 
100 100 
100 100 
100 100 
100 100 
100 100 
100 100 
100 100 
100 100 
100 100 
100 100 
100 100 
100 100 
100 100 
100 100 
100 100 
100 100 
100 100 
100 100 
100 100 
100 100 
100 100 
100 100 
100 100 
100 100 
100 100 
100 100 
100 100 
100 100 
100 100 
100 100 
100 100 
100 100 
100 100 
100 100 
100 100 
100 100 
100 100 
100 100 
100 100 
100 100 
100 100 
100 100 
100 100 
100 100 
100 100 
100 100 
100 100 
100 100 
100 100 
100 100 
100 100 
100 100 
100 100 
100 100 
100 100 
100 100 
100 100 
100 100 
100 100 
100 100 
100 100 
100 100 
100 100 
100 100 
100 100 
100 100 
100 100 
100 100 
100 100 
100 100 
100 100 
100 100 
100 100 
100 100 
100 100 
100 100 
100 100 
100 100 
100 100 
100 100 
100 100 
100 100 
100 100 
100 100 
